10	36
0	1	85
0	3	33
0	4	23
0	5	25
0	6	56
0	8	63
0	9	76
1	2	84
1	3	2
1	5	41
1	6	96
1	7	88
1	8	74
1	9	14
2	3	65
2	4	24
2	5	69
2	6	1
2	7	84
3	4	60
3	6	23
3	7	44
3	8	37
3	9	62
4	5	93
4	6	63
4	7	57
5	6	63
5	7	18
5	8	99
5	9	24
6	8	89
6	9	92
7	8	89
7	9	97
8	9	46
